NAME          
ROWS
 N  OBJ
 L  c1
 L  c2
 L  c3
 L  c4
COLUMNS
    MARKER    'MARKER'                 'INTORG'
    x[1]      c1        200
    x[1]      c2        460
    x[1]      c3        529
    x[1]      c4        160
    x[1]      OBJ       -264
    x[2]      c1        375
    x[2]      c2        461
    x[2]      c3        264
    x[2]      c4        837
    x[2]      OBJ       -968
    x[3]      c1        648
    x[3]      c2        519
    x[3]      c3        972
    x[3]      c4        717
    x[3]      OBJ       -240
    x[4]      c1        97
    x[4]      c2        64
    x[4]      c3        412
    x[4]      c4        587
    x[4]      OBJ       -652
    x[5]      c1        112
    x[5]      c2        344
    x[5]      c3        989
    x[5]      c4        565
    x[5]      OBJ       -788
    x[6]      c1        371
    x[6]      c2        804
    x[6]      c3        897
    x[6]      c4        944
    x[6]      OBJ       -83
    x[7]      c1        753
    x[7]      c2        452
    x[7]      c3        538
    x[7]      c4        282
    x[7]      OBJ       -804
    x[8]      c1        446
    x[8]      c2        953
    x[8]      c3        520
    x[8]      c4        271
    x[8]      OBJ       -720
    x[9]      c1        267
    x[9]      c2        62
    x[9]      c3        850
    x[9]      c4        743
    x[9]      OBJ       -992
    x[10]     c1        689
    x[10]     c2        751
    x[10]     c3        489
    x[10]     c4        948
    x[10]     OBJ       -399
    x[11]     c1        852
    x[11]     c2        134
    x[11]     c3        779
    x[11]     c4        54
    x[11]     OBJ       -49
    x[12]     c1        888
    x[12]     c2        23
    x[12]     c3        984
    x[12]     c4        271
    x[12]     OBJ       -203
    x[13]     c1        944
    x[13]     c2        121
    x[13]     c3        827
    x[13]     c4        179
    x[13]     OBJ       -733
    x[14]     c1        639
    x[14]     c2        834
    x[14]     c3        360
    x[14]     c4        817
    x[14]     OBJ       -883
    x[15]     c1        825
    x[15]     c2        800
    x[15]     c3        980
    x[15]     c4        43
    x[15]     OBJ       -751
RHS
    rhs       c1        4053
    rhs       c2        3391
    rhs       c3        5195
    rhs       c4        3709
RANGES
BOUNDS
 BV bounds    x[1]
 BV bounds    x[2]
 BV bounds    x[3]
 BV bounds    x[4]
 BV bounds    x[5]
 BV bounds    x[6]
 BV bounds    x[7]
 BV bounds    x[8]
 BV bounds    x[9]
 BV bounds    x[10]
 BV bounds    x[11]
 BV bounds    x[12]
 BV bounds    x[13]
 BV bounds    x[14]
 BV bounds    x[15]
ENDATA
